code/experiments/eil51_sub/eil51_n19.tsp
NAME : eil51_n19
COMMENT : 19-city problem (Christofides/Eilon)
TYPE : TSP
DIMENSION : 19
EDGE_WEIGHT_TYPE : CEIL_2D
NODE_COORD_SECTION
1 37 52
2 49 49
3 52 64
4 52 33
5 51 21
6 36 16
7 52 41
8 27 23
9 16 57
10 7 38
11 43 67
12 58 48
13 37 69
14 62 63
15 32 22
16 45 35
17 10 17
18 5 64
19 30 15
EOF
