code/experiments/eil51_sub/eil51_n19.opt.tour
19
0 12 10 2 13 11 1 6 15 3 
4 5 18 14 7 16 9 17 8 
